(declare-const a Real)
(declare-const b Real)
(declare-const c Real)
(assert (= (+ a b c) 3))
(assert (not (<= (+ (* (/ 1 2) (pow (+ (* a b) (* a c)) 2)) (* -2 (pow a 4)) (* -2 (pow b 4)) (* -2 (pow c 4)) (* 2 a b (pow c 2)) (* 2 a c (pow b 2))) 0)))
(check-sat)
(get-model)
(exit)